80	100	100	100
7	4	5
9	8	3
4	7	9
1	9	3
7	2	6
9	5	5
9	5	9
8	8	2
3	4	1
1	2	1
8	3	7
4	7	5
6	4	3
7	6	2
6	2	8
4	8	8
8	6	7
7	3	2
6	5	3
1	5	4
9	8	8
9	7	3
1	4	9
5	9	8
4	2	2
5	9	1
8	7	1
6	2	4
2	1	8
6	9	3
5	2	9
9	2	2
8	5	1
3	9	6
1	9	3
5	3	8
8	6	1
5	2	2
8	9	2
3	8	2
4	9	6
4	1	6
7	8	3
7	7	4
6	2	4
1	8	4
1	8	1
8	6	4
5	7	3
7	5	9
9	7	5
6	6	1
3	4	5
5	1	2
1	2	5
5	5	1
6	3	1
6	6	8
4	5	8
8	1	3
8	5	3
2	2	3
5	6	1
4	3	5
3	8	8
6	9	4
2	1	2
1	3	4
5	5	6
8	7	8
3	1	5
1	3	3
6	2	8
1	5	9
4	4	5
3	6	9
9	7	8
9	4	4
6	6	3
1	2	6
